(set-info :smt-lib-version 2.6)
(set-logic UFNIRA)
(set-info :source |
Generated by: Mirek Olšák, Mikoláš Janota, Chad E. Brown
Generated on: 2024-04-14
Application: Mathematics challenges involving function synthesis
Publications: https://arxiv.org/abs/2404.12048
From a collection by: Vít Musil
Source url: https://prase.cz/library/FunkcionalniRovniceVM/FunkcionalniRovniceVM.pdf
Problem number: Úloha 48
Original source: MEMO-2008
|)
(set-info :license "https://creativecommons.org/licenses/by-nc/4.0/")
(set-info :category "crafted")
(set-info :status sat)

; Header
(declare-fun f (Real) Real)

; Equations
(assert (forall ((x Real) (y Real)) (= (* x (f (+ x (* x y)))) (+ (* x (f x)) (* (f (* x x)) (f y))))))

; Find all possible f

(check-sat)
(exit)
